1 10
2 11
3 13
4 6
5 10
6 1
7 17
8 1
9 1
10 5
11 13
12 3
13 6
14 9
15 3
16 1
17 4
18 18
19 12
20 1
21 20
22 1
23 15
24 10
25 8
26 1
27 2
28 5
29 12
30 2
31 18
32 5
33 13
34 9
35 11
36 2
37 1
38 3
39 9
40 15
41 13
42 10
43 15
44 9
45 5
46 2
47 1
48 12
49 8
50 1
51 2
52 9
53 10
54 7
55 8
56 18
57 1
58 11
59 5
60 18
61 5
62 4
63 3
64 5
65 2
66 2
67 1
68 3
69 18
70 3
71 1
72 1
73 4
74 5
75 1
76 4
77 1
78 4
79 5
80 11
81 3
82 1
83 3
84 11
85 4
86 11
87 4
88 5
89 11
90 18
91 9
92 17
93 15
94 2
95 1
96 5
97 16
98 11
99 20
100 4
101 13
102 3
103 5
104 1
105 4
106 2
107 1
108 3
109 4
110 2
111 1
112 1
113 2
114 4
115 9
116 9
117 11
118 1
119 16
120 12
121 19
122 1
123 8
124 15
125 16
126 18
127 7
128 4
129 1
130 2
131 3
132 1
133 15
134 2
135 4
136 4
137 3
138 2
139 1
140 13
141 16
142 13
143 14
144 2
145 18
146 8
147 16
148 1
149 13
150 17
151 15
152 14
153 10
154 5
155 6
156 1
157 4
158 3
159 6
160 1
161 3
162 4
163 2
164 11
165 15
166 4
167 7
168 12
169 2
170 2
171 4
172 14
173 12
174 1
175 1
176 2
177 19
178 1
179 14
180 12
181 4
182 16
183 11
184 7
185 1
186 15
187 16
188 15
189 11
190 20
191 20
192 1
193 21
194 6
195 4
196 2
197 6
198 5
199 1
200 2
201 3
202 9
203 1
204 1
205 1
206 1
207 1
208 3
209 15
210 5
211 3
212 3
213 5
214 12
215 9
216 1
217 16
218 10
219 1
220 6
221 2
222 9
223 9
224 5
225 18
226 9
227 17
228 4
229 12
230 3
231 6
232 1
233 3
234 1
235 2
236 2
237 1
238 1
239 15
240 9
241 10
242 2
243 1
244 16
245 4
246 11
247 7
248 6
249 6
250 6
251 7
252 6
253 7
254 6
255 10
256 6
257 10
258 10
259 12
260 15
261 5
262 10
263 2
264 14
265 4
266 19
267 12
268 5
269 11
270 5
271 12
272 4
273 16
274 2
275 8
276 7
277 15
278 13
279 6
280 4
281 1
282 2
283 9
284 4
285 1
286 4
287 4
288 11
289 18
290 15
291 17
292 18
293 18
294 2
295 17
296 18
297 15
298 18
299 2
300 20
301 17
302 3
303 11
304 5
305 16
306 4
307 4
308 1
309 3
310 2
311 1
312 3
313 1
314 2
315 9
316 2
317 15
318 11
319 11
320 1
321 1
322 16
323 15
324 10
325 2
326 2
327 19
328 1
329 1
330 1
331 9
332 8
333 15
334 17
335 11
336 14
337 21
338 4
339 16
340 20
341 5
342 3
343 11
344 2
345 1
346 1
347 4
348 3
349 3
350 3
351 2
352 2
353 5
354 5
355 1
356 3
357 3
358 14
359 5
360 20
361 2
362 9
363 3
364 1
365 18
366 9
367 2
368 20
369 1
370 9
371 16
372 4
373 5
374 2
375 4
376 5
377 14
378 1
379 15
380 13
381 1
382 16
383 10
384 5
385 13
386 13
387 18
388 18
389 3
390 9
391 17
392 20
393 20
394 20
395 20
396 8
397 17
398 20
399 8
400 10
401 2
402 20
403 7
404 2
405 7
406 12
407 17
408 3
409 11
410 1
411 3
412 2
413 15
414 13
415 13
416 9
417 5
418 12
419 4
420 3
421 1
422 18
423 2
424 5
425 1
426 3
427 4
428 2
429 1
430 2
431 11
432 5
433 18
434 2
435 13
436 2
437 18
438 17
439 15
440 2
441 1
442 4
443 1
444 14
445 10
446 11
447 7
448 15
449 17
450 9
451 3
452 18
453 5
454 5
455 6
456 3
457 3
458 3
459 4
460 1
461 9
